1643696749576551989503,11,1,2,015,7,1,2,03,6,1,2,03,9,1,2,010,10,1,2,07,5,1,2,02,7,1,2,013,2,1,2,06,13,1,2,06,5,1,2,013,6,1,2,012,10,1,2,010,4,1,2,08,7,1,2,05,7,1,2,07,4,1,2,015,7,1,2,05,12,1,2,09,11,1,2,01,10,1,2,03,12,1,2,012,7,1,2,09,3,1,2,013,6,1,2,012,8,1,2,01,4,1,2,05,2,1,2,07,10,1,2,013,13,1,2,05,7,1,2,09,6,1,2,04,3,1,2,015,11,1,2,05,9,1,2,07,6,1,2,013,5,1,2,05,1,1,2,014,14,1,2,03,10,1,2,013,1,1,2,03,4,1,2,07,13,1,2,013,11,1,2,09,10,1,2,015,8,1,2,013,8,1,2,04,14,1,2,010,14,1,2,011,3,1,2,08,4,1,2,0